34221.11,38.17,42.03
34112.68,38.29,42.17
34588.48,37.76,41.59
34108.95,38.3,42.17
35254.09,37.05,40.8
30423.76,42.93,47.28
31710.95,41.19,45.36
28065.75,46.54,51.25
36286.45,36.0,39.64
38798.23,33.67,37.08
29269.66,44.63,49.14
31001.85,42.13,46.4
29111.67,44.87,49.41
35028.63,37.29,41.07
28183.39,46.35,51.04
33439.8,39.06,43.02
30870.77,42.31,46.6
31978.65,40.85,44.98
30731.29,42.5,46.81
33665.75,38.8,42.73
